70
1715
7
95
15
83
71
38
22
50
0 2
0 4
0 5
0 6
0 8
0 9
0 10
0 11
0 12
0 16
0 17
0 19
0 20
0 22
0 24
0 25
0 26
0 27
0 28
0 29
0 31
0 34
0 35
0 36
0 37
0 38
0 39
0 40
0 41
0 42
0 44
0 45
0 46
0 47
0 48
0 49
0 51
0 53
0 54
0 56
0 57
0 58
0 59
0 60
0 62
0 63
0 64
0 66
0 69
1 3
1 4
1 5
1 6
1 7
1 8
1 9
1 10
1 12
1 14
1 18
1 19
1 20
1 21
1 22
1 23
1 26
1 27
1 28
1 30
1 31
1 32
1 33
1 34
1 36
1 37
1 38
1 39
1 42
1 43
1 45
1 48
1 50
1 52
1 53
1 54
1 57
1 60
1 61
1 62
1 65
1 66
1 67
1 68
2 3
2 4
2 6
2 8
2 9
2 10
2 12
2 14
2 15
2 17
2 18
2 19
2 22
2 23
2 24
2 26
2 29
2 30
2 31
2 32
2 33
2 36
2 38
2 39
2 40
2 41
2 42
2 43
2 44
2 45
2 47
2 48
2 50
2 51
2 52
2 54
2 56
2 60
2 62
2 64
2 65
2 66
2 67
2 68
2 69
3 4
3 5
3 6
3 8
3 9
3 10
3 12
3 15
3 16
3 19
3 20
3 21
3 22
3 24
3 25
3 26
3 27
3 29
3 31
3 32
3 33
3 34
3 35
3 36
3 37
3 38
3 39
3 41
3 44
3 46
3 47
3 48
3 49
3 50
3 51
3 52
3 54
3 55
3 56
3 57
3 58
3 61
3 62
3 63
3 64
3 65
3 66
3 67
3 68
3 69
4 5
4 6
4 7
4 8
4 9
4 10
4 11
4 12
4 15
4 16
4 17
4 19
4 20
4 21
4 23
4 25
4 26
4 27
4 28
4 29
4 30
4 31
4 32
4 33
4 34
4 35
4 36
4 38
4 39
4 41
4 47
4 48
4 49
4 50
4 51
4 52
4 54
4 55
4 56
4 58
4 59
4 60
4 62
4 63
4 64
4 66
4 67
4 68
4 69
5 7
5 8
5 9
5 10
5 11
5 12
5 13
5 15
5 16
5 21
5 22
5 23
5 24
5 26
5 27
5 29
5 30
5 32
5 33
5 34
5 36
5 37
5 38
5 39
5 41
5 43
5 44
5 45
5 46
5 47
5 48
5 50
5 51
5 52
5 53
5 54
5 55
5 56
5 57
5 58
5 60
5 61
5 62
5 63
5 64
5 65
5 67
5 68
5 69
6 7
6 8
6 9
6 10
6 11
6 12
6 13
6 14
6 15
6 16
6 17
6 18
6 19
6 20
6 22
6 23
6 24
6 25
6 26
6 27
6 28
6 29
6 30
6 32
6 33
6 34
6 39
6 41
6 43
6 44
6 45
6 46
6 47
6 48
6 49
6 50
6 51
6 52
6 53
6 54
6 55
6 56
6 58
6 60
6 61
6 62
6 63
6 65
6 67
6 69
7 8
7 9
7 10
7 12
7 13
7 16
7 18
7 20
7 21
7 23
7 24
7 25
7 27
7 28
7 29
7 31
7 32
7 33
7 35
7 37
7 39
7 40
7 41
7 42
7 43
7 44
7 46
7 47
7 48
7 50
7 51
7 53
7 54
7 55
7 56
7 57
7 59
7 62
7 63
7 64
7 66
7 67
7 68
7 69
8 9
8 13
8 15
8 16
8 17
8 18
8 19
8 20
8 21
8 22
8 24
8 26
8 28
8 29
8 30
8 31
8 32
8 33
8 35
8 36
8 38
8 39
8 40
8 41
8 42
8 43
8 44
8 45
8 48
8 49
8 50
8 51
8 52
8 53
8 55
8 57
8 61
8 62
8 63
8 66
8 67
8 69
9 10
9 12
9 13
9 16
9 17
9 18
9 19
9 20
9 21
9 23
9 24
9 25
9 26
9 27
9 28
9 30
9 32
9 33
9 34
9 35
9 36
9 37
9 39
9 40
9 41
9 43
9 44
9 47
9 50
9 51
9 52
9 54
9 55
9 56
9 57
9 58
9 59
9 61
9 62
9 63
9 64
9 65
9 66
9 67
10 11
10 12
10 13
10 14
10 16
10 18
10 19
10 20
10 21
10 22
10 23
10 24
10 25
10 27
10 28
10 29
10 31
10 32
10 33
10 34
10 35
10 36
10 38
10 40
10 41
10 42
10 44
10 45
10 46
10 48
10 49
10 50
10 51
10 52
10 53
10 56
10 57
10 59
10 60
10 61
10 63
10 64
10 65
10 66
10 69
11 12
11 13
11 14
11 15
11 16
11 17
11 18
11 20
11 21
11 24
11 25
11 28
11 29
11 31
11 36
11 37
11 38
11 39
11 40
11 41
11 42
11 45
11 46
11 47
11 48
11 51
11 52
11 53
11 55
11 56
11 59
11 60
11 61
11 64
11 65
11 66
11 68
12 13
12 16
12 17
12 18
12 21
12 23
12 24
12 26
12 27
12 28
12 29
12 30
12 31
12 32
12 33
12 34
12 35
12 37
12 38
12 39
12 42
12 43
12 45
12 46
12 47
12 49
12 50
12 51
12 52
12 54
12 55
12 56
12 57
12 58
12 59
12 61
12 62
12 63
12 64
12 65
12 66
12 68
13 14
13 15
13 16
13 18
13 19
13 21
13 24
13 25
13 27
13 28
13 29
13 30
13 31
13 33
13 35
13 36
13 39
13 40
13 41
13 42
13 43
13 44
13 45
13 46
13 47
13 49
13 50
13 51
13 52
13 54
13 55
13 56
13 57
13 58
13 59
13 60
13 62
13 63
13 64
13 65
13 66
14 15
14 16
14 17
14 18
14 19
14 20
14 22
14 24
14 25
14 26
14 27
14 28
14 29
14 30
14 31
14 32
14 34
14 35
14 37
14 38
14 39
14 41
14 42
14 43
14 45
14 46
14 47
14 48
14 49
14 50
14 51
14 52
14 53
14 57
14 58
14 59
14 60
14 61
14 62
14 63
14 64
14 65
14 67
14 68
14 69
15 16
15 17
15 18
15 19
15 20
15 21
15 22
15 23
15 24
15 25
15 26
15 28
15 29
15 31
15 32
15 33
15 35
15 38
15 39
15 41
15 42
15 43
15 44
15 46
15 47
15 48
15 49
15 51
15 52
15 54
15 55
15 56
15 57
15 59
15 60
15 61
15 63
15 66
15 67
15 69
16 18
16 19
16 20
16 23
16 24
16 25
16 26
16 28
16 29
16 30
16 31
16 33
16 34
16 36
16 39
16 40
16 41
16 42
16 44
16 47
16 48
16 49
16 50
16 51
16 53
16 57
16 58
16 59
16 60
16 61
16 64
16 66
16 67
16 68
16 69
17 18
17 20
17 21
17 22
17 23
17 25
17 26
17 27
17 28
17 30
17 32
17 33
17 34
17 36
17 37
17 38
17 39
17 40
17 41
17 42
17 43
17 44
17 45
17 48
17 50
17 51
17 52
17 55
17 56
17 58
17 59
17 60
17 61
17 62
17 63
17 65
17 66
17 68
17 69
18 19
18 20
18 21
18 24
18 25
18 26
18 29
18 31
18 33
18 36
18 37
18 39
18 42
18 44
18 45
18 46
18 47
18 51
18 54
18 58
18 60
18 61
18 63
18 64
18 65
18 66
18 67
19 21
19 24
19 25
19 27
19 28
19 29
19 30
19 31
19 32
19 35
19 36
19 37
19 39
19 40
19 41
19 42
19 43
19 46
19 48
19 49
19 50
19 51
19 52
19 53
19 54
19 55
19 57
19 59
19 60
19 62
19 64
19 65
19 67
19 68
20 21
20 23
20 24
20 25
20 26
20 27
20 28
20 29
20 31
20 32
20 34
20 35
20 36
20 37
20 39
20 40
20 42
20 43
20 44
20 45
20 46
20 47
20 48
20 49
20 50
20 51
20 53
20 54
20 56
20 57
20 58
20 59
20 60
20 61
20 63
20 67
20 68
20 69
21 23
21 24
21 27
21 29
21 30
21 31
21 33
21 35
21 37
21 39
21 44
21 45
21 46
21 47
21 49
21 51
21 54
21 55
21 56
21 58
21 60
21 61
21 63
21 64
21 66
21 69
22 23
22 24
22 26
22 27
22 29
22 30
22 31
22 33
22 34
22 36
22 38
22 40
22 41
22 42
22 43
22 44
22 45
22 46
22 47
22 49
22 50
22 51
22 52
22 53
22 54
22 55
22 56
22 57
22 58
22 59
22 60
22 62
22 64
22 65
22 66
22 67
22 68
22 69
23 24
23 25
23 27
23 30
23 31
23 32
23 33
23 34
23 35
23 36
23 41
23 42
23 43
23 46
23 47
23 48
23 49
23 50
23 51
23 52
23 53
23 54
23 55
23 59
23 60
23 61
23 62
23 63
23 64
23 65
23 66
23 68
23 69
24 26
24 27
24 29
24 30
24 31
24 34
24 35
24 36
24 37
24 38
24 39
24 41
24 42
24 44
24 45
24 46
24 49
24 50
24 51
24 52
24 54
24 57
24 58
24 60
24 63
24 64
24 65
24 66
24 67
24 68
24 69
25 29
25 30
25 31
25 36
25 37
25 39
25 40
25 41
25 42
25 43
25 44
25 45
25 46
25 47
25 48
25 50
25 51
25 53
25 54
25 56
25 57
25 58
25 59
25 60
25 61
25 62
25 63
25 64
25 68
25 69
26 27
26 28
26 29
26 30
26 31
26 32
26 33
26 34
26 35
26 36
26 37
26 38
26 40
26 41
26 42
26 43
26 46
26 47
26 48
26 50
26 51
26 53
26 54
26 55
26 56
26 57
26 58
26 61
26 62
26 63
26 64
26 65
26 67
27 31
27 33
27 34
27 37
27 38
27 40
27 41
27 42
27 43
27 45
27 46
27 49
27 52
27 53
27 56
27 58
27 59
27 60
27 61
27 64
27 67
28 29
28 30
28 32
28 33
28 35
28 36
28 37
28 38
28 40
28 41
28 42
28 44
28 45
28 47
28 48
28 49
28 50
28 51
28 52
28 53
28 54
28 55
28 56
28 57
28 58
28 59
28 61
28 62
28 64
28 65
28 67
28 68
28 69
29 30
29 31
29 32
29 33
29 34
29 35
29 38
29 39
29 40
29 41
29 42
29 43
29 44
29 45
29 47
29 48
29 49
29 50
29 51
29 52
29 53
29 55
29 57
29 58
29 60
29 61
29 62
29 63
29 64
29 65
29 66
29 67
29 68
30 32
30 33
30 36
30 38
30 39
30 40
30 41
30 42
30 43
30 44
30 48
30 49
30 51
30 52
30 53
30 54
30 55
30 56
30 57
30 58
30 60
30 61
30 62
30 63
30 66
30 68
30 69
31 32
31 33
31 34
31 35
31 36
31 37
31 38
31 40
31 41
31 43
31 47
31 48
31 49
31 51
31 52
31 53
31 54
31 55
31 56
31 57
31 58
31 59
31 62
31 63
31 65
31 66
31 67
31 69
32 33
32 34
32 35
32 36
32 37
32 40
32 45
32 47
32 48
32 49
32 50
32 51
32 52
32 54
32 55
32 57
32 58
32 59
32 60
32 61
32 62
32 65
32 66
32 67
32 68
33 34
33 35
33 36
33 37
33 38
33 39
33 41
33 43
33 44
33 46
33 47
33 48
33 50
33 52
33 53
33 54
33 56
33 57
33 58
33 59
33 60
33 62
33 63
33 65
33 66
33 67
33 68
34 35
34 36
34 37
34 38
34 39
34 40
34 41
34 42
34 43
34 44
34 45
34 46
34 47
34 48
34 49
34 50
34 54
34 56
34 57
34 58
34 59
34 63
34 64
34 66
34 67
35 36
35 37
35 38
35 40
35 41
35 43
35 44
35 48
35 50
35 51
35 52
35 53
35 54
35 55
35 59
35 61
35 62
35 65
35 66
35 67
35 69
36 37
36 39
36 40
36 41
36 44
36 45
36 47
36 49
36 50
36 51
36 52
36 53
36 54
36 55
36 56
36 57
36 58
36 59
36 60
36 61
36 64
36 65
36 66
36 67
36 68
37 38
37 40
37 41
37 43
37 44
37 46
37 49
37 50
37 53
37 54
37 57
37 58
37 59
37 60
37 62
37 63
37 64
37 65
37 66
37 67
37 68
37 69
38 39
38 40
38 41
38 42
38 43
38 44
38 45
38 46
38 47
38 48
38 49
38 50
38 51
38 52
38 53
38 56
38 57
38 58
38 59
38 60
38 64
38 65
38 67
38 68
38 69
39 40
39 42
39 43
39 45
39 47
39 48
39 50
39 51
39 52
39 54
39 55
39 56
39 58
39 62
39 66
40 41
40 43
40 44
40 46
40 47
40 48
40 50
40 51
40 54
40 57
40 58
40 59
40 60
40 61
40 62
40 64
40 66
40 68
40 69
41 43
41 47
41 48
41 49
41 50
41 51
41 52
41 53
41 54
41 55
41 58
41 59
41 60
41 61
41 64
41 66
41 67
41 68
41 69
42 43
42 44
42 45
42 46
42 47
42 48
42 49
42 51
42 52
42 54
42 56
42 57
42 58
42 62
42 63
42 65
42 66
42 67
42 68
42 69
43 45
43 46
43 49
43 50
43 51
43 52
43 53
43 54
43 55
43 57
43 58
43 61
43 62
43 65
43 66
43 67
43 68
43 69
44 46
44 47
44 48
44 52
44 53
44 55
44 58
44 60
44 61
44 62
44 63
44 65
44 66
44 68
44 69
45 46
45 47
45 48
45 49
45 50
45 52
45 55
45 56
45 57
45 58
45 59
45 61
45 62
45 63
45 65
45 66
45 67
45 68
46 47
46 48
46 49
46 50
46 51
46 52
46 53
46 54
46 56
46 57
46 59
46 60
46 62
46 63
46 64
46 65
46 67
47 49
47 50
47 52
47 53
47 55
47 56
47 57
47 58
47 61
47 62
47 64
47 65
47 66
47 67
47 68
47 69
48 50
48 55
48 56
48 59
48 60
48 61
48 62
48 64
48 65
48 67
48 68
48 69
49 50
49 53
49 55
49 59
49 60
49 61
49 62
49 65
49 66
49 67
49 68
49 69
50 53
50 55
50 56
50 57
50 59
50 60
50 61
50 63
50 64
50 65
50 66
50 68
50 69
51 53
51 54
51 59
51 60
51 61
51 64
51 65
51 66
51 67
51 69
52 54
52 55
52 59
52 60
52 61
52 62
52 63
52 64
52 65
52 67
52 68
52 69
53 55
53 56
53 57
53 58
53 59
53 60
53 62
53 63
53 64
53 66
53 68
54 55
54 56
54 58
54 59
54 60
54 61
54 62
54 63
54 65
54 66
54 68
54 69
55 56
55 57
55 58
55 59
55 60
55 61
55 63
55 64
55 66
55 67
55 68
55 69
56 57
56 58
56 60
56 61
56 62
56 64
56 65
56 66
56 67
56 68
56 69
57 58
57 59
57 60
57 61
57 62
57 63
57 64
57 65
57 66
57 67
57 68
57 69
58 59
58 60
58 63
58 65
58 66
58 67
58 68
58 69
59 61
59 62
59 63
59 65
59 66
59 68
59 69
60 61
60 62
60 64
60 65
60 66
60 68
60 69
61 62
61 63
61 64
61 65
61 68
61 69
62 63
62 65
62 67
62 68
62 69
63 64
63 65
63 66
63 68
63 69
64 65
64 67
64 68
64 69
65 67
65 68
65 69
66 67
66 68
66 69
68 69
45 67 69 36 62 7 5 28 49 41
47 23 30 38 10 40 16 25 34 53
51 19 26 64 35 13 29 44 17 59
6 55 18 15 66 43 33 68 58 48
4 14 3 46 50 65 37 8 20 0
32 12 2 54 39 42 24 21 9 11
60 61 63 57 27 1 31 52 22 56
